p edge 50 368
e 1 16
e 1 20
e 1 23
e 1 27
e 1 33
e 1 39
e 1 45
e 1 46
e 1 47
e 2 3
e 2 4
e 2 6
e 2 7
e 2 11
e 2 14
e 2 19
e 2 23
e 2 25
e 2 27
e 2 45
e 3 4
e 3 5
e 3 12
e 3 13
e 3 15
e 3 16
e 3 17
e 3 18
e 3 25
e 3 32
e 3 33
e 3 36
e 3 39
e 3 41
e 3 47
e 3 49
e 4 6
e 4 8
e 4 10
e 4 12
e 4 19
e 4 22
e 4 23
e 4 31
e 4 34
e 4 40
e 4 43
e 4 44
e 4 45
e 5 7
e 5 9
e 5 10
e 5 14
e 5 16
e 5 24
e 5 25
e 5 32
e 5 42
e 5 47
e 6 10
e 6 17
e 6 19
e 6 27
e 6 28
e 6 31
e 6 32
e 6 36
e 6 40
e 6 43
e 6 46
e 7 8
e 7 10
e 7 13
e 7 17
e 7 21
e 7 26
e 7 33
e 7 41
e 7 43
e 7 47
e 7 48
e 7 49
e 8 10
e 8 14
e 8 20
e 8 22
e 8 26
e 8 27
e 8 29
e 8 30
e 8 31
e 8 32
e 8 34
e 8 36
e 8 37
e 8 47
e 8 50
e 9 15
e 9 18
e 9 22
e 9 25
e 9 27
e 9 41
e 9 43
e 9 46
e 9 47
e 9 48
e 10 15
e 10 18
e 10 25
e 10 26
e 10 28
e 10 33
e 10 37
e 10 40
e 10 41
e 10 42
e 10 43
e 10 44
e 10 46
e 10 49
e 11 12
e 11 15
e 11 16
e 11 22
e 11 23
e 11 24
e 11 25
e 11 30
e 11 31
e 11 32
e 11 37
e 11 40
e 11 41
e 11 48
e 11 49
e 12 19
e 12 29
e 12 33
e 12 35
e 12 39
e 12 40
e 12 43
e 12 44
e 12 50
e 13 14
e 13 16
e 13 34
e 13 38
e 13 45
e 14 15
e 14 16
e 14 20
e 14 21
e 14 24
e 14 26
e 14 34
e 14 35
e 14 39
e 14 41
e 14 42
e 14 43
e 14 45
e 14 46
e 14 50
e 15 20
e 15 21
e 15 22
e 15 23
e 15 24
e 15 25
e 15 39
e 15 40
e 15 42
e 15 46
e 15 49
e 16 17
e 16 19
e 16 20
e 16 22
e 16 30
e 16 31
e 16 32
e 16 34
e 16 35
e 16 38
e 16 41
e 16 43
e 16 45
e 16 48
e 16 49
e 17 22
e 17 24
e 17 27
e 17 31
e 17 37
e 17 38
e 17 39
e 17 44
e 17 46
e 17 49
e 18 20
e 18 25
e 18 36
e 18 39
e 18 40
e 18 41
e 18 42
e 18 47
e 18 48
e 19 25
e 19 26
e 19 30
e 19 31
e 19 32
e 19 37
e 19 40
e 19 41
e 19 45
e 19 46
e 20 26
e 20 29
e 20 35
e 20 36
e 20 39
e 20 42
e 20 45
e 20 47
e 20 49
e 21 24
e 21 26
e 21 28
e 21 29
e 21 31
e 21 32
e 21 34
e 21 37
e 21 41
e 21 42
e 21 44
e 22 24
e 22 25
e 22 26
e 22 28
e 22 30
e 22 40
e 22 43
e 22 49
e 23 25
e 23 26
e 23 27
e 23 33
e 23 39
e 23 40
e 24 25
e 24 27
e 24 31
e 24 40
e 24 43
e 24 45
e 24 46
e 24 47
e 24 50
e 25 28
e 25 41
e 25 43
e 25 44
e 25 47
e 26 29
e 26 31
e 26 33
e 26 34
e 26 35
e 26 39
e 26 50
e 27 28
e 27 31
e 27 37
e 27 38
e 27 41
e 27 42
e 27 45
e 27 48
e 27 50
e 28 29
e 28 30
e 28 35
e 28 41
e 28 44
e 28 48
e 29 32
e 29 36
e 29 38
e 29 39
e 29 43
e 29 47
e 29 48
e 29 49
e 30 32
e 30 38
e 30 41
e 31 35
e 31 41
e 31 42
e 31 43
e 31 48
e 32 36
e 32 38
e 33 36
e 33 38
e 33 42
e 33 44
e 33 48
e 33 49
e 34 35
e 34 37
e 34 38
e 34 39
e 34 40
e 34 43
e 35 39
e 35 40
e 35 47
e 35 48
e 36 37
e 36 43
e 36 47
e 37 41
e 37 43
e 37 46
e 37 47
e 37 48
e 38 40
e 38 42
e 38 43
e 38 45
e 38 46
e 38 48
e 39 40
e 39 41
e 39 42
e 39 44
e 39 45
e 39 46
e 40 45
e 40 47
e 40 49
e 40 50
e 41 44
e 41 45
e 41 46
e 41 48
e 42 43
e 42 47
e 42 50
e 43 45
e 43 46
e 43 47
e 43 48
e 43 50
e 44 48
e 44 50
e 45 46
e 45 48
e 46 47
e 46 49
e 46 50
e 49 50
